5
25
0 62 89 9 83 98 35 71 20 73 58 16 14 10 31 44 90 97 22 76 59 61 85 26 34
13
0 18 74 91 66 24 50 19 54 28 2 13 29
24
0 5 48 7 41 88 30 79 55 96 3 64 25 65 69 21 15 87 93 52 78 17 23 37
24
0 92 57 60 80 86 56 8 6 11 82 33 45 42 40 70 99 47 51 77 95 4 36 38
18
0 46 27 53 39 63 68 72 67 84 49 43 1 81 94 12 75 32
